c Command line: hgen8 120 60
p cnf 120 189
26 62 18 109 0
84 87 24 100 0
118 6 7 17 0
111 83 107 108 0
53 120 67 113 0
19 8 49 96 0
92 98 73 55 0
79 95 63 93 0
76 90 25 28 0
41 51 99 72 0
39 57 2 104 0
15 27 74 42 0
91 11 70 86 0
106 105 22 56 0
102 116 5 60 0
44 48 81 77 0
10 114 69 78 0
34 101 54 66 0
103 38 29 112 0
50 46 43 64 0
85 31 52 30 0
110 13 12 119 0
16 82 59 36 0
45 9 117 65 0
21 35 37 1 0
-1 -2 0
-1 -5 0
-2 -5 0
-6 -7 0
-6 -8 0
-6 -9 0
-6 -10 0
-7 -8 0
-7 -9 0
-7 -10 0
-8 -9 0
-8 -10 0
-9 -10 0
-11 -12 0
-11 -13 0
-11 -15 0
-12 -13 0
-12 -15 0
-13 -15 0
-16 -17 0
-16 -18 0
-16 -19 0
-17 -18 0
-17 -19 0
-18 -19 0
-21 -22 0
-21 -24 0
-21 -25 0
-22 -24 0
-22 -25 0
-24 -25 0
-26 -27 0
-26 -28 0
-26 -29 0
-26 -30 0
-27 -28 0
-27 -29 0
-27 -30 0
-28 -29 0
-28 -30 0
-29 -30 0
-31 -34 0
-31 -35 0
-34 -35 0
-36 -37 0
-36 -38 0
-36 -39 0
-37 -38 0
-37 -39 0
-38 -39 0
-41 -42 0
-41 -43 0
-41 -44 0
-41 -45 0
-42 -43 0
-42 -44 0
-42 -45 0
-43 -44 0
-43 -45 0
-44 -45 0
-46 -48 0
-46 -49 0
-46 -50 0
-48 -49 0
-48 -50 0
-49 -50 0
-51 -52 0
-51 -53 0
-51 -54 0
-51 -55 0
-52 -53 0
-52 -54 0
-52 -55 0
-53 -54 0
-53 -55 0
-54 -55 0
-56 -57 0
-56 -59 0
-56 -60 0
-57 -59 0
-57 -60 0
-59 -60 0
-62 -63 0
-62 -64 0
-62 -65 0
-63 -64 0
-63 -65 0
-64 -65 0
-66 -67 0
-66 -69 0
-66 -70 0
-67 -69 0
-67 -70 0
-69 -70 0
-72 -73 0
-72 -74 0
-73 -74 0
-76 -77 0
-76 -78 0
-76 -79 0
-77 -78 0
-77 -79 0
-78 -79 0
-81 -82 0
-81 -83 0
-81 -84 0
-81 -85 0
-82 -83 0
-82 -84 0
-82 -85 0
-83 -84 0
-83 -85 0
-84 -85 0
-86 -87 0
-86 -90 0
-87 -90 0
-91 -92 0
-91 -93 0
-91 -95 0
-92 -93 0
-92 -95 0
-93 -95 0
-96 -98 0
-96 -99 0
-96 -100 0
-98 -99 0
-98 -100 0
-99 -100 0
-101 -102 0
-101 -103 0
-101 -104 0
-101 -105 0
-102 -103 0
-102 -104 0
-102 -105 0
-103 -104 0
-103 -105 0
-104 -105 0
-106 -107 0
-106 -108 0
-106 -109 0
-106 -110 0
-107 -108 0
-107 -109 0
-107 -110 0
-108 -109 0
-108 -110 0
-109 -110 0
-111 -112 0
-111 -113 0
-111 -114 0
-112 -113 0
-112 -114 0
-113 -114 0
-116 -117 0
-116 -118 0
-116 -119 0
-116 -120 0
-117 -118 0
-117 -119 0
-117 -120 0
-118 -119 0
-118 -120 0
-119 -120 0
